75, 4511
2576, 328
5537, 353
5070, 214
5145, 379
5915, 438
2635, 397
1637, 139
2893, 102
5656, 350
1561, 185
2445, 179
4383, 105
3686, 463
5794, 425
3199, 349
1167, 172
3897, 218
3459, 232
1099, 417
2382, 478
2472, 157
3085, 209
3143, 110
5802, 180
2995, 485
1050, 445
4828, 393
1312, 323
1116, 369
4811, 403
5128, 460
3471, 359
4348, 310
5522, 400
5987, 161
3803, 413
2675, 198
3114, 383
1000, 274
2208, 240
5881, 316
4303, 172
5657, 254
1990, 419
5875, 291
3799, 198
4348, 249
4556, 259
4706, 270
5928, 402
5702, 359
2129, 470
5195, 362
1878, 325
1224, 142
2559, 217
5139, 198
1237, 193
2701, 252
1156, 227
3625, 477
1833, 136
2156, 445
4609, 240
5359, 477
1170, 305
4628, 373
5871, 379
5582, 490
4430, 168
4428, 266
5814, 295
1869, 272
2743, 490
2953, 393